c uprop, v00.0, 
c reading from data/prog382.c.cnf
c done reading: 0
p cnf 138 523
-59 -63 0
-56 -59 0
56 59 63 0
-50 56 63 0
-50 -56 -63 0
50 56 -63 0
50 -56 63 0
-47 59 0
47 -59 0
-44 -59 0
44 59 0
-41 47 0
41 -47 0
-39 -47 0
39 47 0
-37 41 0
37 -41 0
-41 -61 0
41 61 0
37 -54 0
-37 54 0
-34 -37 0
34 37 0
-31 54 0
31 -54 0
-54 -66 0
54 66 0
31 -69 0
-31 69 0
-31 -72 0
31 72 0
63 -75 0
-63 75 0
-56 78 0
56 -78 0
-52 78 0
-52 63 0
52 -63 -78 0
-48 -63 -78 0
-48 63 78 0
48 63 -78 0
48 -63 78 0
-52 -56 0
42 -56 0
42 -52 0
-42 52 56 0
-63 -80 0
-56 -80 0
56 63 80 0
56 63 -81 0
-56 -63 -81 0
56 -63 81 0
-56 63 81 0
80 -82 0
-80 82 0
-80 -83 0
80 83 0
82 -84 0
-82 84 0
-82 -85 0
82 85 0
84 -86 0
-75 -86 0
75 -84 86 0
75 -84 -87 0
-75 84 -87 0
75 84 87 0
-75 -84 87 0
-29 86 0
-29 -48 0
29 48 -86 0
-28 48 -86 0
-28 -48 86 0
28 48 86 0
28 -48 -86 0
-27 29 0
-27 -42 0
27 -29 42 0
-26 -29 42 0
-26 29 -42 0
26 29 42 0
26 -29 -42 0
-25 27 0
25 -27 0
-27 -58 0
27 58 0
25 -49 0
-25 49 0
-25 -46 0
25 46 0
-43 49 0
43 -49 0
-40 -49 0
40 49 0
-38 43 0
38 -43 0
-36 -43 0
36 43 0
38 -60 0
-38 60 0
-38 -53 0
38 53 0
-33 60 0
33 -60 0
-30 -60 0
30 60 0
33 -65 0
-33 65 0
-33 -68 0
33 68 0
-23 -71 0
-21 -71 0
21 23 71 0
-20 21 23 0
-20 -21 -23 0
20 21 -23 0
20 -21 23 0
71 -74 0
-19 -74 0
19 -71 74 0
-18 19 -71 0
-18 -19 71 0
18 19 71 0
18 -19 -71 0
74 -77 0
-16 -77 0
16 -74 77 0
-15 16 -74 0
-15 -16 74 0
15 16 74 0
15 -16 -74 0
-14 77 0
-12 -14 0
12 14 -77 0
12 -77 -88 0
-12 77 -88 0
12 77 88 0
-12 -77 88 0
14 -89 0
-89 -90 0
-14 89 90 0
-14 90 -92 0
14 -90 -92 0
14 90 92 0
-14 -90 92 0
89 -93 0
-93 -94 0
-89 93 94 0
-89 94 -96 0
89 -94 -96 0
89 94 96 0
-89 -94 96 0
93 -97 0
-97 -98 0
-93 97 98 0
-93 98 -100 0
93 -98 -100 0
93 98 100 0
-93 -98 100 0
21 -101 0
23 -101 0
-21 -23 101 0
-21 -23 -102 0
21 23 -102 0
-21 23 102 0
21 -23 102 0
-19 -21 103 0
-19 -101 103 0
-21 -101 103 0
19 21 -103 0
19 101 -103 0
21 101 -103 0
19 -103 -104 0
21 -103 -104 0
101 -103 -104 0
-19 103 104 0
-21 103 104 0
-101 103 104 0
-19 -21 -101 104 0
19 21 101 -104 0
-16 -19 105 0
-16 -103 105 0
-19 -103 105 0
16 19 -105 0
16 103 -105 0
19 103 -105 0
16 -105 -106 0
19 -105 -106 0
103 -105 -106 0
-16 105 106 0
-19 105 106 0
-103 105 106 0
-16 -19 -103 106 0
16 19 103 -106 0
-12 -16 107 0
-12 -105 107 0
-16 -105 107 0
12 16 -107 0
12 105 -107 0
16 105 -107 0
12 -107 -108 0
16 -107 -108 0
105 -107 -108 0
-12 107 108 0
-16 107 108 0
-105 107 108 0
-12 -16 -105 108 0
12 16 105 -108 0
-12 -90 109 0
-90 -107 109 0
-12 -107 109 0
12 90 -109 0
90 107 -109 0
12 107 -109 0
-64 90 -109 0
12 -64 -109 0
-64 107 -109 0
64 -90 109 0
-12 64 109 0
64 -107 109 0
-12 64 -90 -107 0
12 -64 90 107 0
57 -90 -94 0
57 -94 -109 0
57 -90 -109 0
-57 90 94 0
-57 94 109 0
-57 90 109 0
-57 94 -110 0
-57 90 -110 0
-57 109 -110 0
57 -94 110 0
57 -90 110 0
57 -109 110 0
-90 -94 -109 110 0
90 94 109 -110 0
-94 -98 111 0
-57 -98 111 0
-57 -94 111 0
94 98 -111 0
57 98 -111 0
57 94 -111 0
98 -111 -112 0
94 -111 -112 0
57 -111 -112 0
-98 111 112 0
-94 111 112 0
-57 111 112 0
-57 -94 -98 112 0
57 94 98 -112 0
98 -113 0
111 -113 0
-98 -111 113 0
-98 -111 -114 0
98 111 -114 0
-98 111 114 0
98 -111 114 0
104 -115 0
23 -115 0
-23 -104 115 0
-23 -24 -104 0
23 -24 104 0
23 24 -104 0
-23 24 104 0
-21 22 -106 0
22 -106 -115 0
-21 22 -115 0
21 -22 106 0
-22 106 115 0
21 -22 115 0
22 -106 0
-21 22 0
22 -115 0
-21 -106 -115 0
17 -19 -108 0
17 -22 -108 0
17 -19 -22 0
-17 19 108 0
-17 22 108 0
-17 19 22 0
-13 -17 108 0
-13 -17 19 0
-13 -17 22 0
13 17 -108 0
13 17 -19 0
13 17 -22 0
13 -19 -22 -108 0
-13 19 22 108 0
-16 -64 91 0
-17 -64 91 0
-16 -17 91 0
16 64 -91 0
17 64 -91 0
16 17 -91 0
64 -91 -95 0
16 -91 -95 0
17 -91 -95 0
-64 91 95 0
-16 91 95 0
-17 91 95 0
-16 -17 -64 95 0
16 17 64 -95 0
-12 99 -110 0
-91 99 -110 0
-12 -91 99 0
12 -99 110 0
91 -99 110 0
12 91 -99 0
-99 110 -116 0
12 -99 -116 0
91 -99 -116 0
99 -110 116 0
-12 99 116 0
-91 99 116 0
-12 -91 -110 116 0
12 91 110 -116 0
-90 -112 117 0
-99 -112 117 0
-90 -99 117 0
90 112 -117 0
99 112 -117 0
90 99 -117 0
112 -117 -118 0
90 -117 -118 0
99 -117 -118 0
-112 117 118 0
-90 117 118 0
-99 117 118 0
-90 -99 -112 118 0
90 99 112 -118 0
-94 -114 119 0
-114 -117 119 0
-94 -117 119 0
94 114 -119 0
114 117 -119 0
94 117 -119 0
114 -119 -120 0
94 -119 -120 0
117 -119 -120 0
-114 119 120 0
-94 119 120 0
-117 119 120 0
-94 -114 -117 120 0
94 114 117 -120 0
-98 -113 121 0
-113 -119 121 0
-98 -119 121 0
98 113 -121 0
113 119 -121 0
98 119 -121 0
113 -121 -122 0
98 -121 -122 0
119 -121 -122 0
-113 121 122 0
-98 121 122 0
-119 121 122 0
-98 -113 -119 122 0
98 113 119 -122 0
95 -123 0
23 -123 0
-23 -95 123 0
-23 -95 -124 0
23 95 -124 0
23 -95 124 0
-23 95 124 0
-21 -116 125 0
-116 -123 125 0
-21 -123 125 0
21 116 -125 0
116 123 -125 0
21 123 -125 0
116 -125 -126 0
21 -125 -126 0
123 -125 -126 0
-116 125 126 0
-21 125 126 0
-123 125 126 0
-21 -116 -123 126 0
21 116 123 -126 0
-19 -118 127 0
-118 -125 127 0
-19 -125 127 0
19 118 -127 0
118 125 -127 0
19 125 -127 0
-118 127 0
-19 127 0
-125 127 0
-19 -118 -125 0
-16 -120 128 0
-120 -127 128 0
-16 -127 128 0
16 120 -128 0
120 127 -128 0
16 127 -128 0
-120 128 0
-16 128 0
-127 128 0
-16 -120 -127 0
-12 -122 129 0
-122 -128 129 0
-12 -128 129 0
12 122 -129 0
122 128 -129 0
12 128 -129 0
-122 129 0
-12 129 0
-128 129 0
-12 -122 -128 0
51 -90 -121 0
51 -121 -129 0
51 -90 -129 0
-51 90 121 0
-51 121 129 0
-51 90 129 0
51 -121 0
51 -90 0
51 -129 0
-90 -121 -129 0
-45 94 0
-45 51 0
45 -51 -94 0
51 -94 0
-51 94 0
-45 -98 0
45 -98 0
-45 98 0
-23 -62 0
-62 -102 0
23 62 102 0
23 -55 102 0
-23 -55 -102 0
-23 55 102 0
23 55 -102 0
-35 62 0
-24 -35 0
24 35 -62 0
24 -32 -62 0
-24 -32 62 0
24 32 62 0
-24 32 -62 0
35 -67 0
-35 67 0
-35 -70 0
35 70 0
67 -73 0
-13 -73 0
13 -67 73 0
13 -67 -130 0
-13 67 -130 0
13 67 130 0
-13 -67 130 0
73 -76 0
-76 -124 0
-73 76 124 0
-73 124 -131 0
73 -124 -131 0
73 124 131 0
-73 -124 131 0
76 -79 0
-79 -126 0
-76 79 126 0
-76 126 -132 0
76 -126 -132 0
76 126 132 0
-76 -126 132 0
79 -133 0
-79 133 0
-79 -134 0
79 134 0
133 -135 0
-133 135 0
-133 -136 0
133 136 0
135 -137 0
-135 137 0
-135 -138 0
135 138 0
-11 137 0
11 -137 0
-10 -137 0
10 137 0
-9 11 0
9 -11 0
-8 -11 0
8 11 0
-7 9 0
7 -9 0
-6 -9 0
6 9 0
-5 7 0
5 -7 0
-4 -7 0
4 7 0
-3 63 0
-3 23 0
3 -23 -63 0
23 -63 0
-23 63 0
2 -56 -102 0
2 -3 -56 0
2 -3 -102 0
-2 56 102 0
-2 3 56 0
-2 3 102 0
2 -56 0
2 -102 0
2 -3 0
-3 -56 -102 0
-2 -24 0
2 24 0
-13 -75 0
13 75 0
1 -48 -124 0
-1 48 124 0
-1 48 0
-1 124 0
1 -48 0
1 -124 0
-42 -126 0
-1 -42 0
-1 -126 0
1 42 126 0
